; TODO try replacing this with int
(declare-datatype nat ((zero) (s (s_0 nat))))
(declare-datatype list (par (a) ((Nil) (Cons (Cons_0 a) (Cons_1 (list a))))))
(define-sort lists (a) (list (list a)))
(declare-fun plus (nat nat) nat)
(assert (forall ((x nat)) (= (plus zero x) x)))
(assert (forall ((x nat) (y nat)) (= (plus (s x) y) (s (plus x y)))))
(declare-fun count (par (a) (a (list a)) nat))
(assert (par (a) (forall ((x a)) (= (count a x (Nil a)) zero))))
(assert (par (a) (forall ((x a) (y a) (ys (list a))) (= (count a x (Cons a y ys)) (ite (= x y) (s (count a x ys)) (count a x ys))))))
(declare-fun counts (par (a) (a (lists a)) nat))
(assert (par (a) (forall ((x a)) (= (counts a x (Nil (list a))) zero))))
(assert (par (a) (forall ((x a) (ys (list a)) (yss (lists a))) (= (counts a x (Cons (list a) ys yss)) (plus (count a x ys) (counts a x yss))))))
(declare-fun less (par (a) (a a) Bool))
(declare-fun leq (par (a) (a a) Bool))
(assert (par (a) (forall ((x a) (y a)) (= (leq a x y) (or (= x y) (less a x y))))))
(declare-fun map_list_lists (par (a) ((list a)) (lists a)))
(assert (par (a) (= (map_list_lists a (Nil a)) (Nil (list a)))))
(assert (par (a) (forall ((x a) (xs (list a))) (= (map_list_lists a (Cons a x xs)) (Cons (list a) (Cons a x (Nil a)) (map_list_lists a xs))))))
(declare-fun merge (par (a) ((list a) (list a)) (list a)))
(assert (par (a) (forall ((ys (list a))) (= (merge a (Nil a) ys) ys))))
(assert (par (a) (forall ((xs (list a))) (= (merge a xs (Nil a)) xs))))
(assert (par (a) (forall ((x a) (xs (list a)) (y a) (ys (list a))) (= (merge a (Cons a x xs) (Cons a y ys))
  (ite (leq a x y) (Cons a x (merge a xs (Cons a y ys))) (Cons a y (merge a (Cons a x xs) ys)))))))
(declare-fun merge_adj (par (a) ((lists a)) (lists a)))
(assert (par (a) (= (merge_adj a (Nil (list a))) (Nil (list a)))))
(assert (par (a) (forall ((xs (list a))) (= (merge_adj a (Cons (list a) xs (Nil (list a)))) (Cons (list a) xs (Nil (list a)))))))
(assert (par (a) (forall ((xs (list a)) (ys (list a)) (zss (lists a))) (= (merge_adj a (Cons (list a) xs (Cons (list a) ys zss)))
  (Cons (list a) (merge a xs ys) (merge_adj a zss))))))
(declare-fun merge_all (par (a) ((lists a)) (list a)))
(assert (par (a) (= (merge_all a (Nil (list a))) (Nil a))))
(assert (par (a) (forall ((xs (list a))) (= (merge_all a (Cons (list a) xs (Nil (list a)))) xs))))
(assert (par (a) (forall ((xs (list a)) (xss (lists a))) (=> (distinct xss (Cons (list a) xs (Nil (list a))))
  (= (merge_all a xss) (merge_all a (merge_adj a xss)))))))
(declare-fun msort_bu (par (a) ((list a)) (list a)))
(assert (par (a) (forall ((xs (list a))) (= (msort_bu a xs) (merge_all a (map_list_lists a xs))))))

; mset(merge_all(xss)) = mset_mset(xss)
(assert (par (a) (forall ((x a) (xss (lists a))) (= (count a x (merge_all a xss)) (counts a x xss)))))
